language ESSENCE' 1.0

letting fixed be 
[
    [7,2,0,4,0,8,0,3,0],
    [0,8,0,0,0,0,0,4,7],
    [4,0,1,0,7,6,8,0,2],
    [8,1,0,7,3,9,0,0,0],
    [0,0,0,8,5,1,0,0,0],
    [0,0,0,2,6,4,0,8,0],
    [2,0,9,6,8,0,4,1,3],
    [3,4,0,0,0,0,0,0,8],
    [1,6,8,9,4,3,2,7,5]
]